(set-logic QF_S)
(declare-fun var0 () String)
(assert (str.in.re var0 (re.++ (re.* (re.+ (str.to.re "000"))) (re.++ (re.+ (re.+ (str.to.re "1"))) (re.++ (re.* (re.+ (str.to.re "2"))) (re.++ (re.union (re.+ (str.to.re "33")) (re.+ (str.to.re "4"))) (re.++ (re.+ (re.union (str.to.re "55") (str.to.re "66"))) (re.++ (re.+ (re.* (str.to.re "77"))) (re.++ (re.* (re.union (str.to.re "888") (str.to.re "9"))) (re.++ (re.+ (re.* (str.to.re "aa"))) (re.++ (re.+ (re.union (str.to.re "b") (str.to.re "cc"))) (re.++ (re.+ (re.union (str.to.re "ddd") (str.to.re "e"))) (re.++ (re.union (re.* (str.to.re "f")) (re.* (str.to.re "g"))) (re.++ (re.+ (re.+ (str.to.re "h"))) (re.++ (re.* (re.* (str.to.re "iii"))) (re.++ (re.union (re.union (str.to.re "jj") (str.to.re "kkk")) (re.union (str.to.re "lll") (str.to.re "mmm"))) (re.++ (re.union (re.union (str.to.re "nnn") (str.to.re "oo")) (re.union (str.to.re "p") (str.to.re "qq"))) (re.++ (re.* (re.+ (str.to.re "r"))) (re.++ (re.union (re.union (str.to.re "ss") (str.to.re "t")) (re.union (str.to.re "u") (str.to.re "v"))) (re.++ (re.+ (re.union (str.to.re "w") (str.to.re "x"))) (re.++ (re.+ (re.+ (str.to.re "yy"))) (re.++ (re.union (re.* (str.to.re "zz")) (re.* (str.to.re "AAA"))) (re.++ (re.union (re.* (str.to.re "B")) (re.* (str.to.re "CCC"))) (re.++ (re.union (re.union (str.to.re "DD") (str.to.re "E")) (re.union (str.to.re "FFF") (str.to.re "GG"))) (re.++ (re.* (re.* (str.to.re "HHH"))) (re.++ (re.union (re.+ (str.to.re "I")) (re.+ (str.to.re "JJ"))) (re.++ (re.* (re.union (str.to.re "K") (str.to.re "L"))) (re.++ (re.+ (re.union (str.to.re "MM") (str.to.re "N"))) (re.++ (re.union (re.+ (str.to.re "OO")) (re.+ (str.to.re "PPP"))) (re.++ (re.+ (re.union (str.to.re "QQQ") (str.to.re "R"))) (re.++ (re.union (re.union (str.to.re "SSS") (str.to.re "TTT")) (re.union (str.to.re "UUU") (str.to.re "VVV"))) (re.++ (re.* (re.* (str.to.re "WWW"))) (re.++ (re.+ (re.+ (str.to.re "XX"))) (re.++ (re.union (re.+ (str.to.re "Y")) (re.+ (str.to.re "ZZZ"))) (re.++ (re.+ (re.union (str.to.re "!!") (str.to.re """"""""))) (re.++ (re.union (re.* (str.to.re "#")) (re.* (str.to.re "$$"))) (re.++ (re.+ (re.union (str.to.re "%%%") (str.to.re "&&"))) (re.++ (re.* (re.* (str.to.re "'''"))) (re.++ (re.union (re.* (str.to.re "(((")) (re.* (str.to.re ")"))) (re.++ (re.+ (re.+ (str.to.re "**"))) (re.++ (re.+ (re.union (str.to.re "++") (str.to.re ",,,"))) (re.++ (re.* (re.+ (str.to.re "---"))) (re.union (re.* (str.to.re "..")) (re.* (str.to.re "//")))))))))))))))))))))))))))))))))))))))))))))
(assert (not (str.in.re var0 (re.++ (re.union (re.+ (str.to.re "000")) (re.+ (str.to.re "1"))) (re.++ (re.union (re.+ (str.to.re "222")) (re.+ (str.to.re "3"))) (re.++ (re.* (re.* (str.to.re "444"))) (re.++ (re.union (re.* (str.to.re "55")) (re.* (str.to.re "666"))) (re.++ (re.union (re.+ (str.to.re "77")) (re.+ (str.to.re "888"))) (re.++ (re.+ (re.* (str.to.re "9"))) (re.++ (re.+ (re.* (str.to.re "aaa"))) (re.++ (re.+ (re.* (str.to.re "b"))) (re.++ (re.+ (re.+ (str.to.re "c"))) (re.++ (re.+ (re.union (str.to.re "ddd") (str.to.re "e"))) (re.++ (re.* (re.* (str.to.re "ff"))) (re.++ (re.+ (re.union (str.to.re "ggg") (str.to.re "hh"))) (re.++ (re.* (re.+ (str.to.re "ii"))) (re.++ (re.union (re.union (str.to.re "jj") (str.to.re "k")) (re.union (str.to.re "ll") (str.to.re "mm"))) (re.++ (re.* (re.* (str.to.re "n"))) (re.++ (re.* (re.+ (str.to.re "oo"))) (re.++ (re.+ (re.union (str.to.re "pp") (str.to.re "q"))) (re.++ (re.+ (re.union (str.to.re "rrr") (str.to.re "sss"))) (re.++ (re.union (re.+ (str.to.re "tt")) (re.+ (str.to.re "uu"))) (re.++ (re.* (re.+ (str.to.re "vv"))) (re.++ (re.+ (re.+ (str.to.re "www"))) (re.++ (re.* (re.* (str.to.re "x"))) (re.++ (re.union (re.+ (str.to.re "y")) (re.+ (str.to.re "zz"))) (re.++ (re.union (re.* (str.to.re "AA")) (re.* (str.to.re "BBB"))) (re.++ (re.union (re.+ (str.to.re "C")) (re.+ (str.to.re "DDD"))) (re.++ (re.+ (re.* (str.to.re "EEE"))) (re.++ (re.union (re.union (str.to.re "FFF") (str.to.re "G")) (re.union (str.to.re "HHH") (str.to.re "II"))) (re.++ (re.* (re.union (str.to.re "JJ") (str.to.re "KKK"))) (re.++ (re.+ (re.+ (str.to.re "L"))) (re.++ (re.+ (re.+ (str.to.re "M"))) (re.++ (re.* (re.* (str.to.re "N"))) (re.++ (re.+ (re.+ (str.to.re "OOO"))) (re.++ (re.+ (re.* (str.to.re "PP"))) (re.++ (re.* (re.* (str.to.re "Q"))) (re.++ (re.union (re.union (str.to.re "RRR") (str.to.re "SS")) (re.union (str.to.re "TT") (str.to.re "UU"))) (re.++ (re.+ (re.union (str.to.re "V") (str.to.re "WW"))) (re.++ (re.* (re.* (str.to.re "XXX"))) (re.++ (re.+ (re.* (str.to.re "Y"))) (re.++ (re.* (re.* (str.to.re "ZZZ"))) (re.++ (re.* (re.union (str.to.re "!!") (str.to.re """"""""))) (re.+ (re.+ (str.to.re "#"))))))))))))))))))))))))))))))))))))))))))))))
(check-sat)